S = 4;
start = [|0,0,0,0,0,0,0,11,0,0,0,0,0,0,0,0|
0,10,0,0,0,0,0,0,8,3,0,0,0,0,0,0|
0,0,0,0,0,0,0,0,10,9,0,0,0,0,0,0|
0,0,0,0,0,0,0,0,0,0,0,0,0,9,0,0|
0,0,0,0,10,0,7,0,4,0,0,0,13,0,0,0|
0,0,0,0,0,0,0,0,0,0,0,0,0,0,0,0|
0,0,0,0,0,0,0,0,0,0,0,0,0,3,0,0|
0,0,0,0,0,2,0,0,0,0,0,0,0,0,16,0|
0,0,0,0,0,0,0,8,0,0,0,0,0,0,0,0|
0,0,0,0,0,4,3,0,0,0,9,0,0,16,0,0|
0,0,16,0,0,0,0,0,0,0,0,0,0,0,0,0|
0,0,0,0,0,0,0,0,0,0,0,0,0,0,0,0|
0,0,0,4,0,0,0,0,0,0,0,0,0,0,0,0|
0,9,0,0,0,0,0,0,0,0,0,0,0,0,0,0|
0,0,0,0,0,0,0,0,0,0,0,0,0,0,0,0|
3,5,0,0,0,0,0,0,0,0,0,0,0,13,12,0|];